8268768472172575114503,12,1,2,011,1,1,2,09,7,1,2,08,7,1,2,010,2,1,2,04,6,1,2,07,12,1,2,01,3,1,2,07,6,1,2,06,15,1,2,08,8,1,2,011,14,1,2,09,2,1,2,013,1,1,2,013,1,1,2,015,4,1,2,09,1,1,2,04,2,1,2,02,6,1,2,013,3,1,2,09,11,1,2,010,2,1,2,015,2,1,2,06,6,1,2,01,1,1,2,011,3,1,2,05,14,1,2,09,13,1,2,08,9,1,2,01,11,1,2,013,15,1,2,010,11,1,2,02,13,1,2,011,2,1,2,03,12,1,2,01,10,1,2,015,3,1,2,04,12,1,2,07,12,1,2,015,14,1,2,011,9,1,2,01,1,1,2,07,12,1,2,012,3,1,2,04,14,1,2,013,5,1,2,02,3,1,2,05,3,1,2,011,14,1,2,03,5,1,2,0